VER
4

OBJSENSE
MIN

QCECONES
1 2
2
11 11
1


VAR
68 1
F 68

CON
7517 4
@0:SVECQCE 7382
SVECQE 68
SVECPSD 66
L= 1

OBJACOORD
2
0 1.0
1 1.0

ACOORD
156
0 0 1.0
1 2 1.0
67 3 1.0
78 4 1.0
254 5 1.0
265 6 1.0
276 7 1.0
562 8 1.0
573 9 1.0
584 10 1.0
595 11 1.0
991 12 1.0
1002 13 1.0
1013 14 1.0
1024 15 1.0
1035 16 1.0
1541 17 1.0
1552 18 1.0
1563 19 1.0
1574 20 1.0
1585 21 1.0
1596 22 1.0
2212 23 1.0
2223 24 1.0
2234 25 1.0
2245 26 1.0
2256 27 1.0
2267 28 1.0
2278 29 1.0
3004 30 1.0
3015 31 1.0
3026 32 1.0
3037 33 1.0
3048 34 1.0
3059 35 1.0
3070 36 1.0
3081 37 1.0
3917 38 1.0
3928 39 1.0
3939 40 1.0
3950 41 1.0
3961 42 1.0
3972 43 1.0
3983 44 1.0
3994 45 1.0
4005 46 1.0
4951 47 1.0
4962 48 1.0
4973 49 1.0
4984 50 1.0
4995 51 1.0
5006 52 1.0
5017 53 1.0
5028 54 1.0
5039 55 1.0
5050 56 1.0
6106 57 1.0
6117 58 1.0
6128 59 1.0
6139 60 1.0
6150 61 1.0
6161 62 1.0
6172 63 1.0
6183 64 1.0
6194 65 1.0
6205 66 1.0
6216 67 1.0
7382 1 1.0
7384 2 1.0
7384 4 1.0
7384 7 1.0
7384 11 1.0
7384 16 1.0
7384 22 1.0
7384 29 1.0
7384 37 1.0
7384 46 1.0
7384 56 1.0
7384 67 1.0
7450 2 1.0
7451 3 1.0
7452 4 1.0
7453 5 1.0
7454 6 1.0
7455 7 1.0
7456 8 1.0
7457 9 1.0
7458 10 1.0
7459 11 1.0
7460 12 1.0
7461 13 1.0
7462 14 1.0
7463 15 1.0
7464 16 1.0
7465 17 1.0
7466 18 1.0
7467 19 1.0
7468 20 1.0
7469 21 1.0
7470 22 1.0
7471 23 1.0
7472 24 1.0
7473 25 1.0
7474 26 1.0
7475 27 1.0
7476 28 1.0
7477 29 1.0
7478 30 1.0
7479 31 1.0
7480 32 1.0
7481 33 1.0
7482 34 1.0
7483 35 1.0
7484 36 1.0
7485 37 1.0
7486 38 1.0
7487 39 1.0
7488 40 1.0
7489 41 1.0
7490 42 1.0
7491 43 1.0
7492 44 1.0
7493 45 1.0
7494 46 1.0
7495 47 1.0
7496 48 1.0
7497 49 1.0
7498 50 1.0
7499 51 1.0
7500 52 1.0
7501 53 1.0
7502 54 1.0
7503 55 1.0
7504 56 1.0
7505 57 1.0
7506 58 1.0
7507 59 1.0
7508 60 1.0
7509 61 1.0
7510 62 1.0
7511 63 1.0
7512 64 1.0
7513 65 1.0
7514 66 1.0
7515 67 1.0
7516 2 1.0
7516 4 1.0
7516 7 1.0
7516 11 1.0
7516 16 1.0
7516 22 1.0
7516 29 1.0
7516 37 1.0
7516 46 1.0
7516 56 1.0
7516 67 1.0

BCOORD
2
7383 -1.0
7516 1.0
